Traveling Salesman Problem/TSP_generados/Aleatorio1621103362_11.tsp
NAME: Aleatorio1621103362_11.tsp
COMMENT: Randomly generated scenario
TYPE: TSP
DIMENSION: 11
EDGE_WEIGHT_TYPE: ATT
NODE_COORD_SECTION
1 6.25 18.01
2 49.11 16.77
3 34.42 20.9
4 6.26 45.85
5 38.03 5.35
6 13.85 47.9
7 42.99 24.65
8 1.58 28.78
9 13.79 7.73
10 7.5 12.48
11 34.29 17.16
