Traveling Salesman Problem/TSP_generados/Aleatorio1621103362_11.opt.tour
NAME: Aleatorio1621103362_11.opt.tour
COMMENT: Optimal solution for Aleatorio1621103362_11 (150.2632586312222)
TYPE: TOUR
DIMENSION: 11
TOUR_SECTION
1 8 4 6 3 11 7 2 5 9 10
-1
EOF
